
Gurobi 6.5.2 (linux64) logging started Tue Mar 14 21:17:40 2017


Gurobi 6.5.2 (linux64) logging started Tue Mar 14 21:17:40 2017

Optimize a model with 101 rows, 418 columns and 909 nonzeros
Coefficient statistics:
  Matrix range    [1e+00, 2e+00]
  Objective range [3e+00, 1e+02]
  Bounds range    [1e+00, 1e+00]
  RHS range       [1e+00, 1e+00]
Found heuristic solution: objective 1806
Presolve removed 30 rows and 10 columns
Presolve time: 0.00s
Presolved: 71 rows, 408 columns, 828 nonzeros
Variable types: 0 continuous, 408 integer (408 binary)

Root relaxation: objective 8.005000e+02, 68 iterations, 0.00 seconds

    Nodes    |    Current Node    |     Objective Bounds      |     Work
 Expl Unexpl |  Obj  Depth IntInf | Incumbent    BestBd   Gap | It/Node Time

     0     0  800.50000    0   20 1806.00000  800.50000  55.7%     -    0s
H    0     0                    1739.0000000  800.50000  54.0%     -    0s
     0     0  852.50000    0    4 1739.00000  852.50000  51.0%     -    0s
H    0     0                    1175.0000000  852.50000  27.4%     -    0s
H    0     0                     886.0000000  852.50000  3.78%     -    0s
     0     0  860.00000    0   34  886.00000  860.00000  2.93%     -    0s
     0     0  860.00000    0   20  886.00000  860.00000  2.93%     -    0s
     0     0  860.00000    0    2  886.00000  860.00000  2.93%     -    0s
     0     0  860.00000    0   38  886.00000  860.00000  2.93%     -    0s
     0     0  860.00000    0   34  886.00000  860.00000  2.93%     -    0s
H    0     0                     875.0000000  860.00000  1.71%     -    0s
     0     0  860.00000    0   34  875.00000  860.00000  1.71%     -    0s
     0     0  860.00000    0   23  875.00000  860.00000  1.71%     -    0s
     0     0  860.00000    0   14  875.00000  860.00000  1.71%     -    0s
     0     0  860.66667    0   33  875.00000  860.66667  1.64%     -    0s
     0     0  861.85714    0   43  875.00000  861.85714  1.50%     -    0s
     0     0  862.20000    0   32  875.00000  862.20000  1.46%     -    0s
     0     0  862.50000    0   44  875.00000  862.50000  1.43%     -    0s
     0     0  862.55556    0   55  875.00000  862.55556  1.42%     -    0s
     0     0  862.56522    0   49  875.00000  862.56522  1.42%     -    0s
H    0     0                     869.0000000  862.56522  0.74%     -    0s
     0     0  862.56522    0    8  869.00000  862.56522  0.74%     -    0s
     0     0  862.56522    0    1  869.00000  862.56522  0.74%     -    0s
     0     0  862.56522    0   19  869.00000  862.56522  0.74%     -    0s
     0     0  866.00000    0   12  869.00000  866.00000  0.35%     -    0s
H    0     0                     866.0000000  866.00000  0.00%     -    0s

Cutting planes:
  Gomory: 5
  Cover: 7
  Clique: 34

Explored 0 nodes (419 simplex iterations) in 0.07 seconds
Thread count was 8 (of 8 available processors)

Optimal solution found (tolerance 1.00e-04)
Best objective 8.660000000000e+02, best bound 8.660000000000e+02, gap 0.0%
